(set-info :origin "driver benchmark extracted from Microsoft SDV")
(set-logic HORN)
(declare-fun Proc14 (Int Int Int Bool Int Int Int Int) Bool)
(declare-fun Proc39 (Int Int Int Bool Int Int Int Int) Bool)
(declare-fun Proc33 (Int Int Int Bool Int) Bool)
(declare-fun Proc3 (Int Int Int Bool Int Int Int Int) Bool)
(declare-fun Proc29 (Int Int Int Bool) Bool)
(declare-fun Proc45 (Int Int Int Bool) Bool)
(declare-fun Proc24 (Int Int Int Bool Int Int) Bool)
(declare-fun Proc10 (Int Int Int Bool Int Int Int Int Int) Bool)
(declare-fun Proc7 (Int Int Int Bool Int Int Int Int Int Int Int Int) Bool)
(declare-fun Proc22 (Int Int Int Bool) Bool)
(declare-fun Proc6 (Int Int Int Bool Int Int Int Int) Bool)
(declare-fun Proc12 (Int Int Int Bool Int Int Int Int) Bool)
(declare-fun Proc18 (Int Int Int Bool Int Int Int Int) Bool)
(declare-fun Proc23 (Int Int Int Bool) Bool)
(declare-fun Proc46 (Int Int Int Bool Int Bool Int Int Int) Bool)
(declare-fun Proc37 (Int Int Int Bool Int Int Int Int) Bool)
(declare-fun Proc5 (Int Int Int Bool Int Int Int Int) Bool)
(declare-fun Proc36 (Int Int Int Bool Int Int Int Int) Bool)
(declare-fun Proc8 (Int Int Int Bool Int Int Int) Bool)
(declare-fun Proc35 (Int Int Int Bool Int Int Int Int) Bool)
(declare-fun Proc26 (Int Int Int Bool Int Int Int) Bool)
(declare-fun Proc16 (Int Int Int Bool Int Int Int Int) Bool)
(declare-fun Proc25 (Int Int Int Bool Int) Bool)
(declare-fun Proc4 (Int Int Int Bool Int Int Int) Bool)
(declare-fun Proc31 (Int Int Int Bool Int Int Int Int Int) Bool)
(declare-fun Proc20 (Int Int Int Bool) Bool)
(declare-fun Proc42 (Int Int Int Bool Int Int Int Int) Bool)
(declare-fun Proc27 (Int Int Int Bool Int Int Int Bool Int) Bool)
(declare-fun Proc38 (Int Int Int Bool Int Int Int Int) Bool)
(declare-fun Proc11 (Int Int Int Bool Int Int Int Int) Bool)
(declare-fun Proc32 (Int Int Int Bool) Bool)
(declare-fun Proc13 (Int Int Int Bool Int Int Int Int Int) Bool)
(declare-fun Proc15 (Int Int Int Bool Int Int) Bool)
(declare-fun Proc40 (Int Int Int Bool Int Int Int Int) Bool)
(declare-fun Proc2 (Int Int Int Bool Int) Bool)
(declare-fun Proc30 (Int Int Int Bool) Bool)
(declare-fun Proc17 (Int Int Int Bool Int) Bool)
(declare-fun Proc19 (Int Int Int Bool) Bool)
(declare-fun Proc21 (Int Int Int Bool) Bool)
(declare-fun Proc41 (Int Int Int Bool Int Int Int Int) Bool)
(declare-fun Proc28 (Int Int Int Bool Int Int) Bool)
(declare-fun Proc43 (Int Int Int Bool Int Int Int Int) Bool)
(declare-fun Proc34 (Int Int Int Bool Int Int) Bool)
(declare-fun Proc44 (Int Int Int Bool Int Int Int Int) Bool)
(declare-fun Proc1 (Int Int Int Bool Int Int) Bool)
(declare-fun Proc0 (Int Int Int Bool Int Int) Bool)
(declare-fun Proc9 (Int Int Int Bool Int Int Int) Bool)
(assert (forall ((A Int)
         (B Int)
         (C Int)
         (D Int)
         (E Int)
         (F Int)
         (G Int)
         (H Int)
         (I Int)
         (J Int)
         (K Int)
         (L Int)
         (M Int)
         (N Int)
         (O Int)
         (P Int)
         (Q Int)
         (R Int)
         (S Bool))
  (let ((a!1 (or (= O 0)
                 (not (Proc1 R Q P S O 0))
                 (not (and (= M R) (= L 0)))
                 (not (and (= K L) (= J M)))))
        (a!2 (or (not (= D E))
                 (not (and (= M D) (= L F)))
                 (not (and (= K L) (= J M)))))
        (a!3 (and (not (<= B (+ 1 C))) (not (<= B E)))))
  (let ((a!4 (or (not (= C E))
                 (not a!3)
                 (not (and (Proc4 B Q P S C F A) (= D A)))
                 (not (and (= M D) (= L F)))
                 (not (and (= K L) (= J M))))))
  (let ((a!5 (and a!1
                  (or (= O 0)
                      (not (Proc2 R Q P S O))
                      (= I 0)
                      (= H 0)
                      (not (Proc3 R Q P S G O F E))
                      (and a!2 a!4)))))
  (let ((a!6 (not (or (not S) (not (Proc0 R Q P S O N)) (= N 0) a!5))))
    (=> a!6 (Proc5 R Q P S I O K J))))))))
(assert (forall ((A Int)
         (B Int)
         (C Int)
         (D Int)
         (E Int)
         (F Int)
         (G Int)
         (H Int)
         (I Int)
         (J Int)
         (K Int)
         (L Int)
         (M Int)
         (N Int)
         (O Int)
         (S Bool))
  (let ((a!1 (or (not (= F G)) (not (and (= E 0) (= D F)))))
        (a!2 (and (not (<= B (+ 1 C))) (not (<= B G)))))
  (let ((a!3 (or (not (= C G))
                 (not a!2)
                 (not (and (Proc4 B N M S C H A) (= F A)))
                 (not (and (= E 0) (= D F))))))
  (let ((a!4 (not (or (not S)
                      (not (Proc2 O N M S L))
                      (= K 0)
                      (= J 0)
                      (not (Proc3 O N M S I L H G))
                      (and a!1 a!3)))))
    (=> a!4 (Proc6 O N M S K L E D)))))))
(assert (forall ((A Int)
         (B Int)
         (C Int)
         (D Int)
         (E Int)
         (F Int)
         (G Int)
         (H Int)
         (I Int)
         (J Int)
         (K Int)
         (L Int)
         (M Int)
         (N Int)
         (O Int)
         (P Int)
         (Q Int)
         (R Int)
         (S Bool)
         (T Int)
         (U Int)
         (V Int)
         (W Int)
         (X Int))
  (let ((a!1 (and (not (<= V (+ 4 X))) (not (<= V W))))
        (a!2 (not (and (= M P) (= L N) (= K O))))
        (a!4 (not (and (not (= J 0)) (Proc8 V U T S I H G))))
        (a!7 (not (and (= B (- 1073741810)) (= P B) (= O D) (= N E)))))
  (let ((a!3 (or (<= 0 Q) (not (= P Q)) (not (and (= O T) (= N V))) a!2))
        (a!5 (or (not (= P Q)) (not (and (= O T) (= N V))) a!2))
        (a!6 (or (not (and (= D 1) (= P C) (= O D) (= N E))) a!2)))
  (let ((a!8 (or (not (Proc9 V U T S F E D)) (and a!6 (or (= D 1) a!7 a!2)))))
  (let ((a!9 (and a!3 (or (not (<= 0 Q)) (= J 0) a!4 (and a!5 a!8)))))
  (let ((a!10 (not (or (not S)
                       (not (= X W))
                       (not a!1)
                       (not (Proc7 V U T S R 12 0 34 256 0 X Q))
                       a!9))))
    (=> a!10 (Proc10 W U T S R A M L K)))))))))
(assert (forall ((A Int)
         (B Int)
         (C Int)
         (D Int)
         (E Int)
         (F Int)
         (G Int)
         (H Int)
         (I Int)
         (J Int)
         (K Int)
         (L Int)
         (M Int)
         (N Int)
         (O Int)
         (P Int)
         (Q Int)
         (R Int)
         (S Bool)
         (T Int)
         (U Int)
         (V Int)
         (W Int)
         (X Int)
         (Y Int)
         (Z Int)
         (A1 Int)
         (B1 Int)
         (C1 Int)
         (D1 Int)
         (E1 Int)
         (F1 Int)
         (G1 Int)
         (H1 Int)
         (I1 Int)
         (J1 Int)
         (K1 Int)
         (L1 Int)
         (M1 Int)
         (N1 Int)
         (O1 Int)
         (P1 Int))
  (let ((a!1 (and (not (<= N1 (+ 1 P1))) (not (<= N1 O1))))
        (a!2 (and (not (<= L1 (+ 1 M1))) (not (<= L1 N1))))
        (a!3 (and (not (<= J1 (+ 1 K1))) (not (<= J1 L1))))
        (a!4 (and (not (<= H1 (+ 1 I1))) (not (<= H1 J1))))
        (a!5 (and (not (<= F1 (+ 1 G1))) (not (<= F1 H1))))
        (a!6 (and (not (<= D1 (+ 1 E1))) (not (<= D1 F1))))
        (a!7 (and (not (<= B1 (+ 1 C1))) (not (<= B1 D1))))
        (a!8 (and (not (<= Z (+ 1 A1))) (not (<= Z B1))))
        (a!9 (and (not (<= X (+ 1 Y))) (not (<= X Z))))
        (a!10 (and (not (<= V (+ 1 W))) (not (<= V X))))
        (a!11 (and (not (<= T (+ 1 U))) (not (<= T V)))))
  (let ((a!12 (or (not S)
                  (not (= P1 O1))
                  (not a!1)
                  (not (= M1 N1))
                  (not a!2)
                  (not (= K1 L1))
                  (not a!3)
                  (not (= I1 J1))
                  (not a!4)
                  (not (= G1 H1))
                  (not a!5)
                  (not (= E1 F1))
                  (not a!6)
                  (not (= C1 D1))
                  (not a!7)
                  (not (= A1 B1))
                  (not a!8)
                  (not (= Y Z))
                  (not a!9)
                  (not (= W X))
                  (not a!10)
                  (not (= U V))
                  (not a!11)
                  (= R 0)
                  (= Q 0)
                  (= P 0)
                  (= O 0)
                  (= N 0)
                  (= M 0)
                  (= L 0)
                  (= K 0)
                  (= J 0)
                  (= I 0)
                  (= H 0)
                  (= G 0)
                  (= F 0)
                  (not (and (= E 0) (= D T))))))
    (=> (not a!12) (Proc11 O1 C B S R A E D))))))
(assert (forall ((A Int) (B Int) (C Int) (D Int) (E Int) (F Int) (G Int) (S Bool))
  (let ((a!1 (and (or (not (= G 0)) (not (= F G)))
                  (or (not (= G E)) (not (= F G))))))
    (=> (not (or (not S) a!1)) (Proc8 D C B S A E F)))))
(assert (forall ((A Int)
         (B Int)
         (C Int)
         (D Int)
         (E Int)
         (F Int)
         (G Int)
         (H Int)
         (I Int)
         (J Int)
         (K Int)
         (L Int)
         (M Int)
         (N Int)
         (O Int)
         (P Int)
         (S Bool))
  (let ((a!1 (not (and (= M (- 1073741823)) (= O M))))
        (a!2 (not (and (= L (- 1073741670)) (= O L))))
        (a!3 (not (and (= K (- 1073741771)) (= O K))))
        (a!4 (not (and (= J (- 1073741824)) (= O J)))))
  (let ((a!5 (and (or (= P 0) (not (= O 0)) (not (= N O)))
                  (or (= P 0) a!1 (not (= N O)))
                  (or (= P 0) a!2 (not (= N O)))
                  (or (= P 0) a!3 (not (= N O)))
                  (or (= P 0) a!4 (not (= N O))))))
    (=> (not (or (not S) a!5)) (Proc7 I H G S F E D C B A P N))))))
(assert (forall ((A Int)
         (B Int)
         (C Int)
         (D Int)
         (E Int)
         (F Int)
         (G Int)
         (H Int)
         (I Int)
         (J Int)
         (S Bool))
  (let ((a!1 (and (not (<= H (+ 1 J))) (not (<= H I))))
        (a!2 (or (not (= C 1)) (not (and (= B D) (= A C)))))
        (a!3 (or (= C 1) (not (and (= B D) (= A C))))))
  (let ((a!4 (not (or (not S)
                      (not (= J I))
                      (not a!1)
                      (not (Proc12 H G F S J E D C))
                      (and a!2 a!3)))))
    (=> a!4 (Proc9 I G F S E B A))))))
(assert (forall ((A Int)
         (B Int)
         (C Int)
         (D Int)
         (E Int)
         (F Int)
         (G Int)
         (H Int)
         (I Int)
         (J Int)
         (K Int)
         (L Int)
         (M Int)
         (N Int)
         (O Int)
         (P Int)
         (Q Int)
         (R Int)
         (S Bool)
         (T Int)
         (U Int)
         (V Int))
  (let ((a!1 (and (not (<= T (+ 4 V))) (not (<= T U))))
        (a!2 (or (not (Proc13 T Q P S O R N V M)) (not (and (= L 259) (= K T)))))
        (a!4 (or (not (Proc13 T Q P S J R I V H)) (not (and (= L 259) (= K T)))))
        (a!6 (or (not (Proc13 T Q P S G R F V E)) (not (and (= L 259) (= K T)))))
        (a!8 (or (not (Proc13 T Q P S D R C V B)) (not (and (= L 259) (= K T))))))
  (let ((a!3 (and a!2 (not (and (= L 259) (= K T)))))
        (a!5 (and a!4 (not (and (= L 259) (= K T)))))
        (a!7 (and a!6 (not (and (= L 259) (= K T)))))
        (a!9 (and a!8 (not (and (= L 259) (= K T))))))
  (let ((a!10 (or (not S)
                  (not (= V U))
                  (not a!1)
                  (and (or (= R 0) a!3)
                       (or (= R 0) a!5)
                       (or (= R 0) a!7)
                       (or (= R 0) a!9)))))
    (=> (not a!10) (Proc14 U Q P S A R L K)))))))
(assert (forall ((A Int)
         (B Int)
         (C Int)
         (D Int)
         (E Int)
         (F Int)
         (G Int)
         (H Int)
         (I Int)
         (J Int)
         (S Bool))
  (let ((a!1 (and (not (<= H (+ 1 J))) (not (<= H I)))))
  (let ((a!2 (or (not S)
                 (not (= J I))
                 (not a!1)
                 (not (Proc15 H G F S J E))
                 (not (and (= D H) (= C E))))))
    (=> (not a!2) (Proc16 I G F S B A D C))))))
(assert (forall ((A Int) (B Int) (C Int) (D Int) (E Int) (S Bool))
  (let ((a!1 (not (or (not S) (not (= E 1))))))
    (=> a!1 (Proc15 D C B S A E)))))
(assert (forall ((A Int) (B Int) (C Int) (D Int) (S Bool))
  (=> false (Proc17 D C B S A))))
(assert (forall ((A Int)
         (B Int)
         (C Int)
         (D Int)
         (E Int)
         (F Int)
         (G Int)
         (H Int)
         (I Int)
         (J Int)
         (K Int)
         (L Int)
         (M Int)
         (S Bool))
  (let ((a!1 (or (not (and (= M L) (= K J))) (not (and (= I K) (= H M)))))
        (a!2 (or (= G 1)
                 (not (and (= M L) (= K J)))
                 (not (and (= I K) (= H M)))))
        (a!3 (and (not (<= E (+ 1 F))) (not (<= E J))))
        (a!5 (or (not (= A 1))
                 (not (and (= M A) (= K B)))
                 (not (and (= I K) (= H M)))))
        (a!6 (or (= A 1)
                 (not (and (= M A) (= K B)))
                 (not (and (= I K) (= H M))))))
  (let ((a!4 (or (not (= G 1))
                 (not (= F J))
                 (not a!3)
                 (not (Proc17 E G L S F))
                 (not (and (= M L) (= K E)))
                 (not (and (= I K) (= H M))))))
  (let ((a!7 (and a!1 a!2 a!4 (or (not (Proc16 J G L S D C B A)) (and a!5 a!6)))))
  (let ((a!8 (and a!1
                  a!2
                  a!4
                  (or (= G 1) (and a!1 a!2 a!4))
                  (or (not (= G 1)) a!7))))
    (=> (not (or (not S) a!8)) (Proc12 J G L S D C I H))))))))
(assert (forall ((A Int)
         (B Int)
         (C Int)
         (D Int)
         (E Int)
         (F Int)
         (G Int)
         (H Int)
         (I Int)
         (S Bool))
  (let ((a!1 (and (not (<= D (+ 1 E))) (not (<= D G)))))
  (let ((a!2 (or (not (= I 259))
                 (not (= E G))
                 (not a!1)
                 (not (and (Proc17 D C B S E) (= H D)))
                 (not (= F H)))))
  (let ((a!3 (and (or (= I 259) (not (= H G)) (not (= F H))) a!2)))
    (=> (not (or (not S) a!3)) (Proc4 G C B S A I F)))))))
(assert (forall ((A Int)
         (B Int)
         (C Int)
         (D Int)
         (E Int)
         (F Int)
         (G Int)
         (H Int)
         (I Int)
         (J Int)
         (K Int)
         (L Int)
         (S Bool))
  (let ((a!1 (and (not (<= H (+ 1 J))) (not (<= H I))))
        (a!3 (or (not (and (= E 1) (= D I))) (not (and (= C E) (= B D))))))
  (let ((a!2 (or (not (= J I))
                 (not a!1)
                 (not (Proc17 H G F S J))
                 (not (and (= E G) (= D H)))
                 (not (and (= C E) (= B D))))))
    (=> (not (or (not S) (= L 0) (= K 0) (and a!2 a!3)))
        (Proc18 I G F S A L C B))))))
(assert (forall ((A Int) (B Int) (C Int) (S Bool)) (=> S (Proc19 C B A S))))
(assert (forall ((A Int) (B Int) (C Int) (S Bool)) (=> S (Proc20 C B A S))))
(assert (forall ((A Int) (B Int) (C Int) (S Bool)) (=> S (Proc21 C B A S))))
(assert (forall ((A Int) (B Int) (C Int) (S Bool)) (=> S (Proc22 C B A S))))
(assert (forall ((A Int) (B Int) (C Int) (S Bool)) (=> S (Proc23 C B A S))))
(assert (forall ((A Int) (B Int) (C Int) (D Int) (E Int) (S Bool))
  (let ((a!1 (or (not S) (not (and (= E 0) (= D 0))))))
    (=> (not a!1) (Proc24 C B A S E D)))))
(assert (forall ((A Int)
         (B Int)
         (C Int)
         (D Int)
         (E Int)
         (F Int)
         (G Int)
         (H Int)
         (I Int)
         (J Int)
         (K Int)
         (L Int)
         (M Int)
         (N Int)
         (O Int)
         (P Int)
         (S Bool)
         (Q1 Bool)
         (R1 Bool)
         (S1 Bool))
  (let ((a!1 (not (and (not (<= P 0)) (Proc25 P O N S1 M))))
        (a!2 (not (and (= E G) (= D I) (= C H) (= Q1 R1) (= B J)))))
  (let ((a!3 (or (= H 0) (not (and (= G F) (not R1))) a!2))
        (a!4 (or (not (and (= H 0) (= S S1))) (not (and (= G A) (= R1 S))) a!2)))
  (let ((a!5 (and (or (= H 1) (and a!3 a!4)) (or (not (= H 1)) (and a!3 a!4)))))
  (let ((a!6 (not (or (not S1)
                      a!1
                      (not (Proc24 M O N S1 L K))
                      (not (Proc23 M L K S1))
                      (not (Proc22 M L K S1))
                      (not (Proc21 M L K S1))
                      (not (Proc20 M L K S1))
                      (not (Proc19 M L K S1))
                      (not (Proc26 M L K S1 J I H))
                      a!5))))
    (=> a!6 (Proc27 P O N S1 E D C Q1 B))))))))
(assert (forall ((A Int)
         (B Int)
         (C Int)
         (D Int)
         (E Int)
         (F Int)
         (G Int)
         (H Int)
         (I Int)
         (S Bool))
  (let ((a!1 (or (not S)
                 (not (Proc14 I H G S F E D C))
                 (not (and (= B D) (= A C))))))
    (=> (not a!1) (Proc3 I H G S F E B A)))))
(assert (forall ((A Int) (B Int) (C Int) (D Int) (E Int) (S Bool))
  (=> S (Proc1 E D C S B A))))
(assert (forall ((A Int) (B Int) (C Int) (D Int) (E Int) (F Int) (S Bool))
  (let ((a!1 (not (or (not S) (= F 0) (not (= E D))))))
    (=> a!1 (Proc0 C B A S F E)))))
(assert (forall ((A Int)
         (B Int)
         (C Int)
         (D Int)
         (E Int)
         (F Int)
         (G Int)
         (H Int)
         (I Int)
         (S Bool))
  (let ((a!1 (and (or (not (= I H)) (not (= G I)))
                  (or (not (= I F)) (not (= G I)))
                  (or (not (= I E)) (not (= G I))))))
    (=> (not (or (not S) a!1)) (Proc28 D C B S A G)))))
(assert (forall ((A Int) (B Int) (C Int) (D Int) (S Bool)) (=> S (Proc2 D C B S A))))
(assert (forall ((A Int)
         (B Int)
         (C Int)
         (D Int)
         (E Int)
         (F Int)
         (G Int)
         (H Int)
         (I Int)
         (J Int)
         (K Int)
         (L Int)
         (M Int)
         (S Bool))
  (let ((a!1 (not (and (= C E) (= B G) (= A F)))))
  (let ((a!2 (or (not (and (= F 1) (= E D))) a!1)))
  (let ((a!3 (and a!2 (or (= F 1) (not (Proc30 G L F S)) (not (= E H)) a!1))))
  (let ((a!4 (not (or (not S)
                      (not (Proc29 M L K S))
                      (not (Proc10 M L K S J I H G F))
                      a!3))))
    (=> a!4 (Proc31 M L K S J I C B A))))))))
(assert (forall ((A Int)
         (B Int)
         (C Int)
         (D Int)
         (E Int)
         (F Int)
         (G Int)
         (H Int)
         (I Int)
         (S Bool))
  (let ((a!1 (not (or (not S) (not (Proc28 I H G S F E)) (not (= D 0))))))
    (=> a!1 (Proc13 I H G S C F B A D)))))
(assert (forall ((A Int)
         (B Int)
         (C Int)
         (D Int)
         (E Int)
         (F Int)
         (G Int)
         (H Int)
         (I Int)
         (J Int)
         (S Bool))
  (let ((a!1 (or (not S)
                 (= J 0)
                 (= I 0)
                 (not (Proc32 H G F S))
                 (not (Proc33 H G F S J))
                 (not (Proc5 H G F S E J D C))
                 (not (Proc34 C G F S D J))
                 (not (and (= B D) (= A C))))))
    (=> (not a!1) (Proc35 H G F S E J B A)))))
(assert (forall ((A Int)
         (B Int)
         (C Int)
         (D Int)
         (E Int)
         (F Int)
         (G Int)
         (H Int)
         (I Int)
         (J Int)
         (S Bool))
  (let ((a!1 (or (not S)
                 (= J 0)
                 (= I 0)
                 (not (Proc33 H G F S J))
                 (not (Proc5 H G F S E J D C))
                 (not (and (= B D) (= A C))))))
    (=> (not a!1) (Proc36 H G F S E J B A)))))
(assert (forall ((A Int)
         (B Int)
         (C Int)
         (D Int)
         (E Int)
         (F Int)
         (G Int)
         (H Int)
         (I Int)
         (J Int)
         (S Bool))
  (let ((a!1 (or (not S)
                 (= J 0)
                 (= I 0)
                 (not (Proc33 H G F S J))
                 (not (Proc6 H G F S E J D C))
                 (not (and (= B D) (= A C))))))
    (=> (not a!1) (Proc37 H G F S E J B A)))))
(assert (forall ((A Int)
         (B Int)
         (C Int)
         (D Int)
         (E Int)
         (F Int)
         (G Int)
         (H Int)
         (I Int)
         (J Int)
         (S Bool))
  (let ((a!1 (or (not S)
                 (= J 0)
                 (= I 0)
                 (not (Proc33 H G F S J))
                 (not (Proc6 H G F S E J D C))
                 (not (and (= B D) (= A C))))))
    (=> (not a!1) (Proc38 H G F S E J B A)))))
(assert (forall ((A Int)
         (B Int)
         (C Int)
         (D Int)
         (E Int)
         (F Int)
         (G Int)
         (H Int)
         (I Int)
         (J Int)
         (S Bool))
  (let ((a!1 (or (not S)
                 (= J 0)
                 (= I 0)
                 (not (Proc33 H G F S J))
                 (not (Proc5 H G F S E J D C))
                 (not (and (= B D) (= A C))))))
    (=> (not a!1) (Proc39 H G F S E J B A)))))
(assert (forall ((A Int)
         (B Int)
         (C Int)
         (D Int)
         (E Int)
         (F Int)
         (G Int)
         (H Int)
         (I Int)
         (J Int)
         (S Bool))
  (let ((a!1 (or (not S)
                 (= J 0)
                 (= I 0)
                 (not (Proc32 H G F S))
                 (not (Proc33 H G F S J))
                 (not (Proc5 H G F S E J D C))
                 (not (Proc34 C G F S D J))
                 (not (and (= B D) (= A C))))))
    (=> (not a!1) (Proc40 H G F S E J B A)))))
(assert (forall ((A Int)
         (B Int)
         (C Int)
         (D Int)
         (E Int)
         (F Int)
         (G Int)
         (H Int)
         (I Int)
         (J Int)
         (S Bool))
  (let ((a!1 (or (not S)
                 (= J 0)
                 (= I 0)
                 (not (Proc33 H G F S J))
                 (not (Proc5 H G F S E J D C))
                 (not (and (= B D) (= A C))))))
    (=> (not a!1) (Proc41 H G F S E J B A)))))
(assert (forall ((A Int)
         (B Int)
         (C Int)
         (D Int)
         (E Int)
         (F Int)
         (G Int)
         (H Int)
         (I Int)
         (J Int)
         (S Bool))
  (let ((a!1 (or (not S)
                 (= J 0)
                 (= I 0)
                 (not (Proc33 H G F S J))
                 (not (Proc6 H G F S E J D C))
                 (not (and (= B D) (= A C))))))
    (=> (not a!1) (Proc42 H G F S E J B A)))))
(assert (forall ((A Int)
         (B Int)
         (C Int)
         (D Int)
         (E Int)
         (F Int)
         (G Int)
         (H Int)
         (I Int)
         (J Int)
         (S Bool))
  (let ((a!1 (or (not S)
                 (= J 0)
                 (= I 0)
                 (not (Proc33 H G F S J))
                 (not (Proc6 H G F S E J D C))
                 (not (and (= B D) (= A C))))))
    (=> (not a!1) (Proc43 H G F S E J B A)))))
(assert (forall ((A Int)
         (B Int)
         (C Int)
         (D Int)
         (E Int)
         (F Int)
         (G Int)
         (H Int)
         (I Int)
         (J Int)
         (S Bool))
  (let ((a!1 (or (not S)
                 (= J 0)
                 (= I 0)
                 (not (Proc33 H G F S J))
                 (not (Proc32 H G F S))
                 (not (Proc5 H G F S E J D C))
                 (not (Proc34 C G F S D J))
                 (not (and (= B D) (= A C))))))
    (=> (not a!1) (Proc44 H G F S E J B A)))))
(assert (forall ((A Int) (B Int) (C Int) (D Int) (S Bool))
  (=> (not (or (not S) (= D 0))) (Proc33 C B A S D))))
(assert (forall ((A Int)
         (B Int)
         (C Int)
         (D Int)
         (E Int)
         (F Int)
         (G Int)
         (H Int)
         (I Int)
         (J Int)
         (K Int)
         (L Int)
         (M Int)
         (N Int)
         (O Int)
         (P Int)
         (Q Int)
         (R Int)
         (S Bool)
         (T Int)
         (U Int)
         (V Int)
         (W Int)
         (X Int)
         (Y Int)
         (Z Int)
         (A1 Int)
         (B1 Int)
         (C1 Int)
         (D1 Int)
         (E1 Int)
         (F1 Int)
         (G1 Int)
         (H1 Int)
         (I1 Int)
         (J1 Int)
         (K1 Int)
         (L1 Int)
         (M1 Int)
         (N1 Int)
         (O1 Int)
         (P1 Int)
         (T1 Int)
         (U1 Int)
         (V1 Int)
         (W1 Int)
         (X1 Int)
         (Y1 Int)
         (Z1 Int)
         (A2 Int)
         (B2 Int)
         (C2 Int)
         (D2 Int)
         (E2 Int)
         (F2 Int)
         (G2 Int)
         (H2 Int)
         (I2 Int)
         (J2 Int)
         (K2 Int)
         (L2 Int)
         (M2 Int)
         (N2 Int)
         (O2 Int)
         (P2 Int)
         (Q2 Int)
         (R2 Int)
         (S2 Int)
         (T2 Int)
         (U2 Int)
         (V2 Int)
         (W2 Int)
         (X2 Int)
         (Y2 Int)
         (Z2 Int)
         (A3 Int))
  (let ((a!1 (and (not (<= Y2 (+ 12 A3))) (not (<= Y2 Z2))))
        (a!2 (not (and (= K2 L2) (= J2 M2) (= I2 N2))))
        (a!4 (and (not (<= N1 (+ 1 O1))) (not (<= N1 T1)))))
  (let ((a!3 (or (not (= N2 1)) (not (and (= M2 X2) (= L2 O2))) a!2))
        (a!5 (or (= N2 1)
                 (not (<= 0 P2))
                 (not (= H2 1))
                 (= H2 0)
                 (not (Proc45 O2 X2 N2 S))
                 (not (Proc41 O2 X2 N2 S G2 F2 E2 D2))
                 (not (<= 0 E2))
                 (not (= C2 1))
                 (= C2 0)
                 (not (Proc44 D2 X2 N2 S B2 A2 Z1 Y1))
                 (not (<= 0 Z1))
                 (not (= X1 1))
                 (= X1 0)
                 (not (Proc39 Y1 X2 N2 S W1 V1 U1 T1))
                 (not (<= 0 U1))
                 (not (= P1 1))
                 (= P1 0)
                 (not (= O1 T1))
                 (not a!4)
                 (not (Proc18 N1 X2 N2 S O1 M1 L1 K1))
                 (not (Proc40 K1 L1 N2 S J1 I1 H1 G1))
                 (not (<= 0 H1))
                 (not (= F1 1))
                 (= F1 0)
                 (not (Proc35 G1 L1 N2 S E1 D1 C1 B1))
                 (not (<= 0 C1))
                 (not (= A1 1))
                 (= A1 0)
                 (not (Proc36 B1 L1 N2 S Z Y X W))
                 (not (<= 0 X))
                 (not (= V 1))
                 (= V 0)
                 (not (Proc38 W L1 N2 S U T R Q))
                 (not (<= 0 R))
                 (not (= P 1))
                 (= P 0)
                 (not (Proc43 Q L1 N2 S O N M L))
                 (not (<= 0 M))
                 (not (= K 1))
                 (= K 0)
                 (not (Proc37 L L1 N2 S J I H G))
                 (not (<= 0 H))
                 (not (= F 1))
                 (= F 0)
                 (not (Proc42 G L1 N2 S E D C B))
                 (not (<= 0 C))
                 (not (= A 1))
                 (= A 0)
                 (not (and (= M2 L1) (= L2 B)))
                 a!2)))
  (let ((a!6 (not (or (not S)
                      (not (= A3 Z2))
                      (not a!1)
                      (not (Proc11 Y2 X2 W2 S V2 A3 U2 T2))
                      (not (<= 0 U2))
                      (not (= S2 1))
                      (= S2 0)
                      (not (Proc31 T2 X2 W2 S R2 Q2 P2 O2 N2))
                      (and a!3 a!5)))))
    (=> a!6 (Proc26 Z2 X2 W2 S K2 J2 I2)))))))
(assert (forall ((A Int) (B Int) (C Int) (S Bool)) (=> S (Proc29 C B A S))))
(assert (forall ((A Int) (B Int) (C Int) (S Bool)) (=> S (Proc30 C B A S))))
(assert (forall ((A Int) (B Int) (C Int) (S Bool)) (=> S (Proc32 C B A S))))
(assert (forall ((A Int) (B Int) (C Int) (D Int) (E Int) (S Bool))
  (=> S (Proc34 E D C S B A))))
(assert (forall ((A Int) (B Int) (C Int) (S Bool)) (=> S (Proc45 C B A S))))
(assert (forall ((A Int)
         (B Int)
         (C Int)
         (D Int)
         (E Int)
         (F Int)
         (G Int)
         (H Int)
         (I Int)
         (J Int)
         (K Int)
         (L Int)
         (M Int)
         (N Int)
         (O Int)
         (P Int)
         (Q Int)
         (R Int)
         (S Bool)
         (T Int)
         (U Int)
         (V Int)
         (W Int)
         (X Int)
         (Y Int)
         (Z Int)
         (A1 Int)
         (B1 Int)
         (C1 Int)
         (D1 Int)
         (E1 Int)
         (F1 Int)
         (G1 Int)
         (H1 Int)
         (I1 Int)
         (J1 Int)
         (K1 Int)
         (L1 Int)
         (M1 Int)
         (N1 Int)
         (O1 Int)
         (P1 Int)
         (T1 Int)
         (U1 Int)
         (V1 Int)
         (W1 Int)
         (X1 Int)
         (Y1 Int)
         (Z1 Int)
         (A2 Int)
         (B2 Int)
         (C2 Int)
         (D2 Int)
         (E2 Int)
         (F2 Int)
         (G2 Int)
         (H2 Int)
         (I2 Int)
         (J2 Int))
  (let ((a!1 (and (not (<= H2 (+ 240 J2)))
                  (not (<= H2 I2))
                  (= G2 H2)
                  (not (<= F2 (+ 4 G2)))
                  (not (<= F2 H2))
                  (= E2 F2)
                  (not (<= D2 (+ 332 E2)))
                  (not (<= D2 F2))
                  (= C2 D2)
                  (not (<= B2 (+ 4 C2)))
                  (not (<= B2 D2))
                  (= A2 B2)
                  (not (<= Z1 (+ 536 A2)))
                  (not (<= Z1 B2))
                  (= Y1 Z1)
                  (not (<= X1 (+ 240 Y1)))))
        (a!2 (and (not (<= X1 Z1))
                  (= W1 X1)
                  (not (<= V1 (+ 240 W1)))
                  (not (<= V1 X1))
                  (= U1 V1)
                  (not (<= T1 (+ 536 U1)))
                  (not (<= T1 V1))
                  (= P1 T1)
                  (not (<= O1 (+ 240 P1)))
                  (not (<= O1 T1))
                  (= N1 O1)
                  (not (<= M1 (+ 4 N1)))
                  (not (<= M1 O1))
                  (= L1 M1)
                  (not (<= K1 (+ 536 L1)))
                  (not (<= K1 M1))
                  (= J1 K1)
                  (not (<= I1 (+ 332 J1)))
                  (not (<= I1 K1))
                  (= H1 I1)
                  (not (<= G1 (+ 240 H1)))
                  (not (<= G1 I1))
                  (= F1 G1)
                  (not (<= E1 (+ 240 F1)))
                  (not (<= E1 G1))
                  (= D1 E1)
                  (not (<= C1 (+ 332 D1)))
                  (not (<= C1 E1))
                  (= B1 C1)
                  (not (<= A1 (+ 4 B1)))
                  (not (<= A1 C1))
                  (= Z A1)
                  (not (<= Y (+ 68 Z)))
                  (not (<= Y A1))
                  (= X Y)
                  (not (<= W (+ 536 X)))
                  (not (<= W Y))
                  (= V W)
                  (not (<= U (+ 240 V)))
                  (not (<= U W))
                  (= T U)
                  (not (<= R (+ 240 T)))
                  (not (<= R U))
                  (= Q R)
                  (not (<= P (+ 240 Q)))
                  (not (<= P R))
                  (= O P)
                  (not (<= N (+ 240 O)))
                  (not (<= N P))
                  (= M N)
                  (not (<= L (+ 240 M)))
                  (not (<= L N))
                  (= K L)
                  (not (<= J (+ 40 K)))
                  (not (<= J L))
                  (= I J)
                  (not (<= H (+ 332 I)))
                  (not (<= H J))
                  (= G H)
                  (not (<= F (+ 4 G)))
                  (not (<= F H))
                  (= E F)
                  (not (<= D (+ 40 E)))
                  (not (<= D F)))))
  (let ((a!3 (not (or (not S) (not (= J2 I2)) (not a!1) (not a!2) (not (= C D))))))
    (=> a!3 (Proc25 I2 B A S C))))))
(assert (forall ((A Int)
         (B Int)
         (C Int)
         (D Int)
         (E Int)
         (F Int)
         (G Int)
         (H Int)
         (I Int)
         (J Int)
         (K Int)
         (S Bool)
         (Q1 Bool)
         (R1 Bool))
  (let ((a!1 (or (not R1) (not (and (Proc27 K J I true H G F Q1 E) (not Q1))))))
    (=> (not a!1) (Proc46 K J I R1 D S C B A)))))
(assert (let ((a!1 (exists ((V0 Int)
                    (V1 Int)
                    (V2 Int)
                    (V3 Bool)
                    (V4 Int)
                    (V5 Bool)
                    (V6 Int)
                    (V7 Int)
                    (V8 Int))
             (not (=> (and (Proc46 V0 V1 V2 V3 V4 V5 V6 V7 V8) (not false))
                      false)))))
  (not a!1)))

(check-sat)
